NAME : grid
TYPE : TSP
DIMENSION : 50
EDGE_WEIGHT_TYPE : EUC_2D
NODE_COORD_SECTION
1 232578 137501
2 365027 797717
3 474553 589161
4 464488 143298
5 864311 62894
6 38825 843641
7 442817 790851
8 271906 581451
9 43096 437607
10 853454 502171
11 62454 529059
12 165717 342321
13 156044 282722
14 17985 339230
15 353932 624002
16 350755 346166
17 853454 791715
18 623216 502171
19 188414 35534
20 271906 843641
21 468016 358333
22 935542 25110
23 229093 740327
24 97074 594140
25 350755 590983
26 513284 172230
27 10899 427316
28 671213 617029
29 968355 512138
30 419220 844194
31 590683 306289
32 183920 951609
33 160738 895625
34 706249 449619
35 286516 750768
36 881353 18777
37 686606 661908
38 518181 95617
39 719142 802405
40 781037 152389
41 189173 231824
42 732188 946398
43 133150 923923
44 785824 899329
45 613824 755882
46 667033 534888
47 276051 114891
48 349806 185894
49 623216 791715
50 411145 411396
EOF
